N = 1150;
M = 1543;
Edge_Start = [1, 1, 2, 3, 3, 4, 5, 5, 6, 7, 7, 9, 10, 11, 12, 13, 13, 14, 15, 15, 16, 17, 17, 18, 19, 19, 20, 21, 21, 22, 23, 23, 24, 25, 25, 26, 27, 29, 29, 30, 31, 31, 32, 33, 33, 34, 35, 35, 36, 37, 37, 38, 39, 39, 40, 41, 41, 42, 43, 43, 45, 45, 46, 47, 48, 49, 49, 50, 51, 51, 53, 54, 56, 57, 57, 58, 59, 59, 60, 61, 62, 63, 63, 64, 65, 65, 66, 67, 67, 68, 69, 69, 70, 71, 71, 72, 73, 73, 74, 75, 75, 76, 77, 78, 79, 80, 81, 81, 82, 83, 83, 85, 85, 86, 87, 87, 88, 89, 89, 90, 91, 91, 92, 93, 93, 94, 95, 96, 96, 97, 98, 98, 99, 100, 100, 101, 102, 103, 104, 104, 105, 106, 107, 108, 108, 109, 110, 110, 111, 112, 112, 114, 114, 115, 116, 117, 118, 119, 120, 121, 122, 122, 123, 124, 124, 125, 126, 126, 127, 128, 128, 129, 130, 131, 132, 132, 133, 134, 134, 135, 136, 137, 138, 138, 139, 140, 141, 142, 142, 145, 145, 146, 147, 147, 148, 149, 149, 150, 151, 151, 152, 153, 153, 154, 155, 155, 156, 157, 157, 158, 159, 159, 160, 161, 161, 162, 163, 163, 164, 165, 165, 166, 167, 167, 169, 169, 170, 171, 172, 173, 174, 175, 175, 176, 177, 177, 178, 179, 179, 180, 181, 182, 183, 183, 184, 185, 185, 186, 187, 187, 188, 189, 189, 190, 191, 192, 193, 194, 194, 195, 196, 196, 197, 198, 198, 199, 200, 200, 201, 202, 202, 203, 204, 204, 205, 206, 206, 207, 208, 208, 209, 210, 210, 211, 212, 212, 213, 214, 214, 215, 216, 217, 218, 218, 219, 220, 220, 221, 222, 222, 223, 224, 224, 225, 226, 227, 228, 228, 229, 230, 230, 231, 232, 232, 233, 234, 235, 236, 236, 237, 238, 238, 240, 241, 242, 243, 245, 245, 246, 247, 247, 248, 249, 250, 251, 252, 253, 253, 254, 255, 255, 256, 257, 257, 258, 259, 259, 260, 261, 261, 262, 263, 263, 264, 265, 265, 266, 267, 267, 268, 269, 270, 271, 271, 272, 273, 273, 274, 275, 275, 276, 277, 277, 278, 279, 279, 280, 281, 282, 283, 283, 284, 285, 287, 288, 288, 289, 290, 290, 291, 292, 292, 293, 294, 294, 296, 296, 297, 298, 298, 299, 300, 301, 302, 302, 303, 304, 305, 306, 306, 307, 308, 308, 310, 310, 311, 312, 312, 313, 314, 314, 315, 316, 316, 317, 318, 318, 319, 320, 320, 321, 322, 322, 323, 324, 324, 325, 326, 326, 327, 328, 328, 329, 330, 330, 331, 332, 332, 333, 334, 334, 336, 337, 337, 338, 339, 339, 340, 341, 341, 342, 343, 344, 345, 345, 346, 347, 347, 348, 349, 349, 350, 351, 351, 352, 353, 353, 354, 355, 355, 356, 357, 357, 358, 359, 359, 360, 361, 361, 362, 363, 363, 364, 365, 365, 366, 367, 367, 368, 369, 369, 370, 371, 371, 372, 373, 374, 375, 375, 377, 377, 378, 379, 379, 380, 381, 381, 382, 383, 384, 384, 385, 386, 386, 387, 388, 389, 390, 390, 391, 392, 392, 393, 394, 395, 396, 396, 397, 398, 398, 399, 400, 400, 401, 402, 402, 404, 404, 405, 406, 406, 407, 408, 408, 409, 410, 410, 411, 412, 412, 414, 414, 415, 416, 416, 417, 418, 418, 419, 420, 420, 421, 422, 422, 423, 424, 424, 425, 426, 427, 428, 430, 430, 432, 433, 433, 434, 435, 436, 437, 437, 438, 439, 439, 440, 441, 441, 442, 443, 443, 444, 445, 447, 448, 449, 450, 451, 451, 453, 453, 454, 455, 455, 456, 457, 457, 459, 459, 460, 461, 462, 463, 463, 464, 465, 465, 466, 467, 467, 469, 469, 470, 471, 471, 472, 473, 473, 474, 475, 475, 476, 477, 477, 478, 479, 480, 481, 482, 482, 483, 484, 484, 485, 486, 486, 487, 488, 488, 489, 490, 490, 491, 492, 492, 493, 494, 494, 495, 496, 496, 497, 498, 498, 499, 500, 501, 502, 502, 503, 504, 504, 505, 506, 506, 507, 508, 508, 509, 510, 511, 512, 512, 513, 514, 514, 515, 516, 516, 517, 518, 518, 519, 520, 520, 522, 522, 523, 524, 524, 526, 526, 528, 529, 529, 530, 531, 531, 532, 533, 533, 534, 535, 535, 536, 537, 537, 539, 539, 540, 541, 542, 543, 543, 544, 545, 545, 546, 547, 548, 549, 549, 550, 551, 551, 552, 553, 554, 555, 555, 556, 557, 557, 558, 559, 560, 561, 561, 562, 563, 563, 564, 565, 566, 567, 567, 568, 569, 569, 570, 571, 571, 572, 573, 573, 574, 575, 576, 576, 577, 578, 578, 579, 580, 580, 581, 582, 582, 583, 584, 584, 585, 586, 587, 588, 588, 589, 590, 590, 591, 592, 592, 593, 594, 595, 596, 596, 597, 598, 598, 599, 600, 601, 602, 602, 604, 604, 605, 606, 606, 607, 608, 608, 609, 610, 610, 611, 612, 612, 613, 614, 614, 615, 616, 616, 617, 618, 618, 619, 620, 620, 621, 622, 622, 624, 625, 625, 626, 627, 627, 628, 629, 629, 630, 631, 631, 632, 633, 633, 634, 635, 635, 636, 637, 637, 638, 639, 640, 641, 642, 643, 644, 645, 645, 646, 647, 647, 648, 649, 649, 650, 651, 651, 652, 653, 653, 654, 655, 655, 656, 657, 657, 658, 659, 659, 660, 661, 661, 662, 663, 663, 664, 665, 665, 666, 667, 667, 669, 669, 670, 671, 672, 672, 673, 674, 674, 675, 676, 676, 677, 678, 678, 679, 680, 680, 682, 682, 683, 684, 684, 685, 686, 686, 687, 688, 688, 690, 690, 691, 692, 692, 693, 694, 694, 695, 696, 696, 697, 698, 698, 699, 700, 701, 702, 702, 703, 704, 704, 705, 706, 706, 707, 708, 708, 709, 710, 712, 712, 713, 714, 714, 715, 716, 716, 717, 718, 718, 720, 721, 721, 722, 723, 723, 724, 725, 725, 726, 727, 727, 728, 729, 729, 730, 731, 731, 732, 733, 733, 734, 735, 735, 736, 737, 737, 738, 739, 739, 740, 741, 741, 742, 743, 743, 744, 745, 745, 746, 747, 747, 748, 749, 749, 751, 751, 752, 753, 753, 754, 755, 755, 756, 757, 757, 758, 759, 759, 760, 761, 763, 763, 764, 765, 765, 766, 767, 768, 768, 769, 770, 770, 771, 772, 772, 773, 774, 774, 775, 776, 776, 778, 779, 780, 780, 781, 782, 782, 784, 784, 785, 786, 786, 787, 788, 788, 789, 790, 790, 792, 792, 793, 794, 794, 795, 796, 796, 797, 798, 798, 799, 800, 801, 802, 802, 804, 804, 805, 806, 806, 807, 808, 808, 809, 810, 811, 812, 812, 813, 814, 814, 816, 817, 817, 818, 819, 819, 820, 821, 821, 822, 823, 823, 824, 825, 826, 827, 828, 829, 829, 830, 831, 831, 832, 833, 833, 834, 835, 835, 836, 837, 837, 838, 839, 839, 840, 841, 841, 843, 843, 844, 845, 845, 846, 847, 848, 849, 849, 850, 851, 851, 852, 853, 853, 854, 855, 855, 857, 858, 859, 859, 860, 861, 861, 862, 863, 864, 864, 865, 866, 866, 867, 868, 868, 869, 870, 870, 871, 872, 872, 874, 874, 875, 876, 876, 877, 878, 878, 879, 880, 881, 882, 882, 883, 884, 884, 885, 886, 886, 887, 888, 888, 889, 890, 890, 891, 892, 893, 894, 894, 895, 896, 896, 897, 898, 898, 899, 900, 900, 901, 902, 902, 903, 904, 904, 905, 906, 906, 907, 908, 909, 910, 912, 913, 913, 914, 915, 915, 917, 917, 918, 919, 919, 920, 921, 921, 922, 923, 923, 924, 925, 926, 927, 927, 928, 929, 929, 931, 931, 933, 934, 935, 936, 937, 938, 939, 939, 940, 941, 941, 942, 943, 943, 944, 945, 945, 946, 947, 947, 949, 949, 950, 951, 951, 952, 953, 953, 954, 955, 955, 956, 957, 957, 958, 959, 960, 960, 961, 962, 962, 963, 964, 964, 965, 966, 966, 967, 968, 968, 969, 970, 970, 971, 972, 972, 973, 974, 974, 975, 976, 976, 977, 978, 978, 979, 980, 981, 982, 982, 983, 984, 984, 985, 986, 986, 987, 988, 988, 989, 990, 990, 991, 992, 992, 993, 994, 994, 995, 996, 996, 997, 998, 998, 999, 1000, 1000, 1001, 1002, 1002, 1003, 1004, 1004, 1005, 1006, 1006, 1008, 1009, 1009, 1010, 1011, 1011, 1012, 1013, 1014, 1015, 1015, 1016, 1017, 1017, 1018, 1019, 1019, 1020, 1021, 1021, 1022, 1023, 1023, 1024, 1025, 1025, 1026, 1027, 1027, 1028, 1029, 1029, 1030, 1031, 1031, 1032, 1033, 1033, 1034, 1035, 1035, 1036, 1037, 1037, 1038, 1039, 1039, 1040, 1041, 1041, 1042, 1043, 1043, 1044, 1045, 1047, 1047, 1049, 1050, 1051, 1051, 1052, 1053, 1054, 1055, 1056, 1056, 1057, 1058, 1058, 1060, 1060, 1061, 1062, 1062, 1064, 1064, 1065, 1066, 1066, 1067, 1068, 1068, 1069, 1070, 1070, 1071, 1072, 1072, 1073, 1074, 1075, 1076, 1076, 1077, 1078, 1078, 1079, 1080, 1080, 1081, 1082, 1082, 1083, 1084, 1084, 1085, 1086, 1086, 1088, 1089, 1090, 1090, 1091, 1092, 1092, 1093, 1094, 1095, 1096, 1096, 1097, 1098, 1098, 1100, 1100, 1101, 1102, 1104, 1105, 1106, 1107, 1108, 1109, 1110, 1111, 1112, 1113, 1114, 1115, 1116, 1118, 1119, 1120, 1121, 1122, 1123, 1124, 1125, 1126, 1127, 1129, 1130, 1131, 1132, 1133, 1134, 1135, 1136, 1137, 1138, 1139, 1140, 1141, 1142, 1143, 1145, 1146, 1147, 1148, 1149];
Edge_End = [2, 48, 3, 4, 50, 5, 6, 52, 7, 8, 54, 10, 11, 12, 13, 14, 60, 15, 16, 62, 17, 18, 64, 19, 20, 66, 21, 22, 68, 23, 24, 70, 25, 26, 72, 27, 28, 30, 76, 31, 32, 78, 33, 34, 80, 35, 36, 82, 37, 38, 84, 39, 40, 86, 41, 42, 88, 43, 44, 90, 46, 92, 47, 94, 49, 50, 97, 51, 52, 99, 101, 55, 57, 58, 105, 59, 60, 107, 61, 62, 63, 64, 111, 65, 66, 113, 67, 68, 115, 69, 70, 117, 71, 72, 119, 73, 74, 121, 75, 76, 123, 77, 78, 79, 127, 81, 82, 129, 83, 84, 131, 86, 133, 87, 88, 135, 89, 90, 137, 91, 92, 139, 93, 94, 141, 95, 143, 97, 144, 98, 99, 146, 100, 101, 148, 102, 150, 104, 105, 152, 106, 154, 108, 109, 156, 110, 111, 158, 112, 113, 160, 115, 162, 116, 164, 118, 119, 120, 168, 122, 123, 170, 124, 125, 172, 126, 127, 174, 128, 129, 176, 130, 178, 132, 133, 180, 134, 135, 182, 136, 184, 138, 139, 186, 140, 188, 142, 143, 190, 146, 193, 147, 148, 195, 149, 150, 197, 151, 152, 199, 153, 154, 201, 155, 156, 203, 157, 158, 205, 159, 160, 207, 161, 162, 209, 163, 164, 211, 165, 166, 213, 167, 168, 215, 170, 217, 171, 172, 173, 174, 175, 176, 223, 177, 178, 225, 179, 180, 227, 181, 182, 183, 184, 231, 185, 186, 233, 187, 188, 235, 189, 190, 237, 191, 239, 193, 194, 195, 242, 196, 197, 244, 198, 199, 246, 200, 201, 248, 202, 203, 250, 204, 205, 252, 206, 207, 254, 208, 209, 256, 210, 211, 258, 212, 213, 260, 214, 215, 262, 216, 217, 218, 219, 266, 220, 221, 268, 222, 223, 270, 224, 225, 272, 226, 274, 228, 229, 276, 230, 231, 278, 232, 233, 280, 234, 282, 236, 237, 284, 238, 239, 286, 241, 242, 243, 291, 246, 293, 247, 248, 295, 249, 297, 251, 252, 253, 254, 301, 255, 256, 303, 257, 258, 305, 259, 260, 307, 261, 262, 309, 263, 264, 311, 265, 266, 313, 267, 268, 315, 269, 270, 271, 272, 319, 273, 274, 321, 275, 276, 323, 277, 278, 325, 279, 280, 327, 281, 329, 283, 284, 331, 285, 333, 335, 289, 336, 290, 291, 338, 292, 293, 340, 294, 295, 342, 297, 344, 298, 299, 346, 300, 348, 302, 303, 350, 304, 305, 306, 307, 354, 308, 309, 356, 311, 358, 312, 313, 360, 314, 315, 362, 316, 317, 364, 318, 319, 366, 320, 321, 368, 322, 323, 370, 324, 325, 372, 326, 327, 374, 328, 329, 376, 330, 331, 378, 332, 333, 380, 334, 335, 382, 337, 338, 385, 339, 340, 387, 341, 342, 389, 343, 344, 345, 346, 393, 347, 348, 395, 349, 350, 397, 351, 352, 399, 353, 354, 401, 355, 356, 403, 357, 358, 405, 359, 360, 407, 361, 362, 409, 363, 364, 411, 365, 366, 413, 367, 368, 415, 369, 370, 417, 371, 372, 419, 373, 421, 375, 376, 423, 378, 425, 379, 380, 427, 381, 382, 429, 383, 431, 385, 432, 386, 387, 434, 388, 436, 390, 391, 438, 392, 393, 440, 394, 395, 396, 397, 444, 398, 399, 446, 400, 401, 448, 402, 403, 450, 405, 452, 406, 407, 454, 408, 409, 456, 410, 411, 458, 412, 413, 460, 415, 462, 416, 417, 464, 418, 419, 466, 420, 421, 468, 422, 423, 470, 424, 425, 472, 426, 474, 428, 476, 431, 478, 433, 434, 481, 435, 436, 437, 438, 485, 439, 440, 487, 441, 442, 489, 443, 444, 491, 445, 446, 495, 449, 497, 451, 452, 499, 454, 501, 455, 456, 503, 457, 458, 505, 460, 507, 461, 509, 463, 464, 511, 465, 466, 513, 467, 468, 515, 470, 517, 471, 472, 519, 473, 474, 521, 475, 476, 523, 477, 478, 525, 479, 527, 528, 482, 483, 530, 484, 485, 532, 486, 487, 534, 488, 489, 536, 490, 491, 538, 492, 493, 540, 494, 495, 542, 496, 497, 544, 498, 499, 546, 500, 548, 502, 503, 550, 504, 505, 552, 506, 507, 554, 508, 509, 556, 510, 511, 512, 513, 560, 514, 515, 562, 516, 517, 564, 518, 519, 566, 520, 521, 568, 523, 570, 524, 525, 572, 527, 574, 529, 530, 577, 531, 532, 579, 533, 534, 581, 535, 536, 583, 537, 538, 585, 540, 587, 541, 542, 543, 544, 591, 545, 546, 593, 547, 595, 549, 550, 597, 551, 552, 599, 553, 554, 555, 556, 603, 557, 558, 605, 559, 560, 561, 562, 609, 563, 564, 611, 565, 566, 567, 568, 615, 569, 570, 617, 571, 572, 619, 573, 574, 621, 575, 623, 577, 624, 578, 579, 626, 580, 581, 628, 582, 583, 630, 584, 585, 632, 586, 634, 588, 589, 636, 590, 591, 638, 592, 593, 640, 594, 642, 596, 597, 644, 598, 599, 646, 600, 601, 602, 603, 650, 605, 652, 606, 607, 654, 608, 609, 656, 610, 611, 658, 612, 613, 660, 614, 615, 662, 616, 617, 664, 618, 619, 666, 620, 621, 668, 622, 623, 670, 625, 626, 673, 627, 628, 675, 629, 630, 677, 631, 632, 679, 633, 634, 681, 635, 636, 683, 637, 638, 685, 639, 640, 641, 642, 643, 644, 645, 646, 693, 647, 648, 695, 649, 650, 697, 651, 652, 699, 653, 654, 701, 655, 656, 703, 657, 658, 705, 659, 660, 707, 661, 662, 709, 663, 664, 711, 665, 666, 713, 667, 668, 715, 670, 717, 671, 719, 673, 720, 674, 675, 722, 676, 677, 724, 678, 679, 726, 680, 681, 728, 683, 730, 684, 685, 732, 686, 687, 734, 688, 689, 736, 691, 738, 692, 693, 740, 694, 695, 742, 696, 697, 744, 698, 699, 746, 700, 701, 702, 703, 750, 704, 705, 752, 706, 707, 754, 708, 709, 756, 710, 758, 713, 760, 714, 715, 762, 716, 717, 764, 718, 719, 766, 721, 722, 769, 723, 724, 771, 725, 726, 773, 727, 728, 775, 729, 730, 777, 731, 732, 779, 733, 734, 781, 735, 736, 783, 737, 738, 785, 739, 740, 787, 741, 742, 789, 743, 744, 791, 745, 746, 793, 747, 748, 795, 749, 750, 797, 752, 799, 753, 754, 801, 755, 756, 803, 757, 758, 805, 759, 760, 807, 761, 809, 764, 811, 765, 766, 813, 767, 815, 769, 816, 770, 771, 818, 772, 773, 820, 774, 775, 822, 776, 777, 824, 826, 780, 781, 828, 782, 783, 830, 785, 832, 786, 787, 834, 788, 789, 836, 790, 791, 838, 793, 840, 794, 795, 842, 796, 797, 844, 798, 799, 846, 800, 801, 802, 803, 850, 805, 852, 806, 807, 854, 808, 809, 856, 810, 858, 812, 813, 860, 814, 815, 862, 817, 818, 865, 819, 820, 867, 821, 822, 869, 823, 824, 871, 825, 826, 827, 828, 829, 830, 877, 831, 832, 879, 833, 834, 881, 835, 836, 883, 837, 838, 885, 839, 840, 887, 841, 842, 889, 844, 891, 845, 846, 893, 847, 848, 849, 850, 897, 851, 852, 899, 853, 854, 901, 855, 856, 903, 905, 859, 860, 907, 861, 862, 909, 863, 911, 865, 912, 866, 867, 914, 868, 869, 916, 870, 871, 918, 872, 873, 920, 875, 922, 876, 877, 924, 878, 879, 926, 880, 928, 882, 883, 930, 884, 885, 932, 886, 887, 934, 888, 889, 936, 890, 891, 938, 892, 940, 894, 895, 942, 896, 897, 944, 898, 899, 946, 900, 901, 948, 902, 903, 950, 904, 905, 952, 906, 907, 954, 908, 909, 910, 911, 913, 914, 961, 915, 916, 963, 918, 965, 919, 920, 967, 921, 922, 969, 923, 924, 971, 925, 973, 927, 928, 975, 929, 930, 977, 932, 979, 934, 935, 983, 937, 938, 939, 940, 987, 941, 942, 989, 943, 944, 991, 945, 946, 993, 947, 948, 995, 950, 997, 951, 952, 999, 953, 954, 1001, 955, 956, 1003, 957, 958, 1005, 959, 1007, 961, 1008, 962, 963, 1010, 964, 965, 1012, 966, 967, 1014, 968, 969, 1016, 970, 971, 1018, 972, 973, 1020, 974, 975, 1022, 976, 977, 1024, 978, 979, 1026, 980, 1028, 982, 983, 1030, 984, 985, 1032, 986, 987, 1034, 988, 989, 1036, 990, 991, 1038, 992, 993, 1040, 994, 995, 1042, 996, 997, 1044, 998, 999, 1046, 1000, 1001, 1048, 1002, 1003, 1050, 1004, 1005, 1052, 1006, 1007, 1054, 1009, 1010, 1057, 1011, 1012, 1059, 1013, 1061, 1015, 1016, 1063, 1017, 1018, 1065, 1019, 1020, 1067, 1021, 1022, 1069, 1023, 1024, 1071, 1025, 1026, 1073, 1027, 1028, 1075, 1029, 1030, 1077, 1031, 1032, 1079, 1033, 1034, 1081, 1035, 1036, 1083, 1037, 1038, 1085, 1039, 1040, 1087, 1041, 1042, 1089, 1043, 1044, 1091, 1045, 1093, 1048, 1095, 1097, 1051, 1052, 1099, 1053, 1054, 1055, 1103, 1057, 1104, 1058, 1059, 1106, 1061, 1108, 1062, 1063, 1110, 1065, 1112, 1066, 1067, 1114, 1068, 1069, 1116, 1070, 1071, 1118, 1072, 1073, 1120, 1074, 1122, 1076, 1077, 1124, 1078, 1079, 1126, 1080, 1081, 1128, 1082, 1083, 1130, 1084, 1085, 1132, 1086, 1087, 1134, 1089, 1090, 1091, 1138, 1092, 1093, 1140, 1094, 1095, 1096, 1097, 1144, 1098, 1099, 1146, 1101, 1148, 1102, 1103, 1105, 1106, 1107, 1108, 1109, 1110, 1111, 1112, 1113, 1114, 1115, 1116, 1117, 1119, 1120, 1121, 1122, 1123, 1124, 1125, 1126, 1127, 1128, 1130, 1131, 1132, 1133, 1134, 1135, 1136, 1137, 1138, 1139, 1140, 1141, 1142, 1143, 1144, 1146, 1147, 1148, 1149, 1150];
L = [7, 11, 10, 15, 14, 1, 10, 11, 11, 10, 12, 8, 17, 6, 12, 18, 7, 6, 4, 14, 2, 2, 9, 5, 19, 5, 14, 19, 9, 9, 3, 2, 13, 1, 7, 1, 14, 3, 18, 9, 1, 5, 14, 18, 18, 14, 16, 1, 3, 16, 12, 2, 6, 1, 2, 9, 15, 15, 14, 18, 14, 13, 6, 17, 16, 4, 17, 5, 8, 4, 2, 12, 3, 9, 14, 17, 19, 18, 11, 17, 7, 19, 15, 12, 6, 12, 12, 16, 1, 17, 12, 16, 18, 14, 18, 17, 12, 18, 1, 4, 3, 6, 17, 6, 11, 14, 11, 19, 3, 8, 6, 16, 3, 13, 1, 14, 2, 3, 16, 4, 4, 10, 11, 4, 19, 10, 16, 17, 6, 8, 10, 16, 10, 10, 18, 13, 10, 6, 5, 4, 17, 2, 1, 5, 5, 2, 14, 2, 2, 12, 6, 8, 3, 7, 12, 7, 5, 7, 9, 18, 11, 2, 17, 6, 17, 4, 4, 16, 1, 16, 10, 17, 15, 9, 5, 12, 12, 5, 1, 12, 12, 16, 17, 8, 14, 16, 4, 9, 8, 10, 16, 10, 6, 6, 9, 7, 8, 9, 16, 3, 4, 2, 14, 12, 9, 17, 12, 6, 4, 5, 4, 18, 10, 18, 12, 1, 3, 12, 17, 1, 17, 7, 19, 16, 4, 12, 12, 7, 11, 16, 11, 12, 9, 6, 12, 7, 7, 13, 17, 15, 18, 13, 10, 7, 3, 18, 19, 3, 12, 19, 6, 12, 1, 1, 4, 3, 8, 18, 13, 12, 1, 17, 8, 2, 6, 13, 11, 8, 1, 12, 14, 9, 6, 1, 16, 14, 14, 15, 2, 9, 3, 4, 3, 11, 11, 3, 15, 11, 3, 17, 17, 7, 5, 11, 16, 16, 7, 13, 8, 9, 8, 6, 10, 5, 10, 13, 6, 16, 4, 17, 16, 7, 12, 5, 2, 8, 4, 9, 19, 16, 9, 8, 5, 3, 17, 12, 12, 4, 10, 5, 1, 12, 15, 6, 1, 14, 13, 15, 11, 13, 14, 4, 11, 8, 11, 7, 6, 8, 9, 1, 9, 7, 9, 18, 8, 13, 18, 15, 9, 15, 4, 18, 17, 12, 12, 17, 18, 18, 7, 6, 7, 15, 14, 14, 9, 13, 4, 6, 17, 17, 11, 9, 9, 4, 13, 6, 14, 13, 14, 13, 15, 16, 9, 1, 4, 4, 5, 11, 15, 11, 16, 5, 15, 7, 5, 8, 19, 14, 19, 6, 16, 16, 10, 7, 15, 17, 9, 5, 15, 14, 8, 12, 10, 18, 13, 3, 17, 6, 3, 16, 8, 2, 2, 18, 6, 10, 9, 14, 18, 9, 2, 9, 10, 3, 10, 17, 3, 19, 12, 12, 12, 4, 1, 19, 18, 3, 8, 18, 19, 14, 1, 8, 7, 2, 5, 15, 16, 10, 3, 15, 2, 16, 12, 6, 4, 18, 10, 19, 10, 10, 11, 1, 14, 15, 16, 7, 17, 6, 10, 1, 17, 16, 4, 17, 2, 14, 14, 9, 14, 1, 13, 13, 12, 12, 15, 12, 19, 1, 9, 11, 5, 17, 5, 18, 15, 14, 2, 13, 11, 16, 13, 16, 19, 16, 15, 17, 10, 3, 9, 13, 2, 10, 8, 17, 19, 14, 16, 7, 18, 19, 16, 5, 13, 11, 15, 13, 3, 8, 11, 5, 17, 16, 13, 5, 13, 13, 8, 1, 5, 2, 15, 1, 10, 10, 7, 7, 13, 12, 15, 13, 4, 15, 17, 5, 15, 3, 16, 5, 3, 8, 3, 13, 8, 5, 11, 19, 19, 4, 8, 3, 6, 17, 13, 6, 1, 8, 15, 19, 11, 2, 12, 7, 18, 8, 12, 19, 12, 16, 15, 9, 1, 9, 13, 11, 2, 12, 3, 15, 6, 16, 7, 14, 1, 14, 7, 18, 14, 10, 3, 18, 5, 7, 5, 7, 7, 10, 2, 9, 3, 8, 8, 2, 17, 14, 4, 18, 18, 3, 1, 13, 10, 15, 5, 17, 2, 9, 18, 16, 15, 9, 1, 12, 8, 2, 16, 1, 11, 16, 16, 4, 2, 12, 18, 9, 10, 3, 11, 10, 16, 16, 19, 10, 5, 8, 14, 2, 1, 13, 2, 11, 16, 19, 1, 11, 14, 9, 7, 17, 14, 12, 8, 15, 7, 16, 10, 9, 7, 2, 9, 12, 11, 13, 16, 5, 19, 13, 13, 11, 8, 11, 6, 6, 9, 1, 1, 2, 15, 14, 11, 1, 5, 19, 8, 6, 18, 13, 8, 1, 10, 7, 4, 7, 19, 17, 12, 7, 18, 7, 2, 16, 15, 5, 13, 17, 18, 3, 7, 10, 2, 17, 8, 1, 5, 18, 13, 4, 11, 10, 14, 1, 8, 9, 7, 18, 10, 2, 10, 7, 7, 5, 12, 2, 14, 10, 13, 9, 7, 3, 16, 10, 2, 3, 13, 5, 6, 18, 1, 12, 5, 13, 9, 2, 19, 9, 14, 2, 1, 10, 18, 16, 8, 6, 4, 16, 1, 12, 16, 1, 7, 18, 9, 14, 15, 2, 14, 2, 17, 7, 12, 5, 6, 9, 4, 3, 9, 1, 7, 14, 15, 18, 2, 12, 10, 4, 4, 7, 6, 1, 7, 5, 3, 5, 15, 16, 2, 3, 17, 11, 9, 6, 15, 16, 1, 1, 4, 15, 1, 14, 5, 17, 5, 18, 12, 12, 1, 11, 1, 14, 5, 14, 4, 4, 3, 13, 9, 14, 14, 11, 7, 7, 15, 10, 8, 10, 8, 3, 2, 6, 7, 3, 13, 15, 12, 17, 16, 18, 1, 16, 9, 10, 10, 3, 13, 17, 13, 9, 4, 4, 19, 11, 9, 2, 18, 6, 8, 17, 4, 8, 11, 11, 10, 18, 6, 16, 6, 8, 16, 14, 9, 10, 4, 11, 5, 2, 12, 2, 12, 17, 16, 4, 6, 6, 2, 14, 6, 6, 7, 5, 6, 11, 16, 9, 13, 17, 11, 1, 3, 9, 18, 3, 8, 15, 11, 15, 13, 2, 14, 11, 16, 16, 1, 18, 18, 17, 13, 8, 7, 10, 3, 7, 2, 2, 13, 14, 1, 8, 2, 13, 15, 19, 6, 16, 8, 6, 18, 9, 2, 4, 13, 2, 5, 19, 16, 11, 8, 16, 9, 9, 14, 4, 9, 4, 13, 8, 10, 5, 11, 8, 5, 1, 17, 19, 5, 4, 7, 3, 19, 18, 16, 13, 18, 14, 11, 1, 12, 3, 18, 6, 18, 9, 13, 15, 1, 14, 6, 5, 11, 17, 7, 7, 17, 1, 5, 7, 1, 13, 16, 14, 19, 1, 12, 19, 3, 7, 13, 16, 14, 18, 8, 15, 11, 5, 14, 10, 8, 6, 4, 17, 2, 4, 17, 4, 2, 17, 10, 13, 11, 16, 9, 4, 17, 18, 3, 8, 3, 17, 8, 11, 10, 17, 7, 3, 5, 3, 6, 4, 7, 4, 2, 5, 8, 1, 14, 2, 13, 5, 7, 3, 12, 18, 5, 7, 10, 10, 4, 9, 3, 6, 4, 8, 4, 7, 16, 2, 7, 8, 19, 8, 2, 13, 6, 18, 1, 15, 15, 10, 1, 13, 1, 17, 11, 12, 17, 18, 14, 9, 13, 8, 1, 11, 6, 4, 2, 9, 4, 10, 18, 16, 13, 12, 13, 5, 17, 18, 18, 12, 1, 19, 4, 10, 1, 18, 3, 11, 18, 6, 14, 5, 10, 5, 15, 7, 17, 9, 13, 14, 1, 12, 18, 5, 15, 19, 2, 11, 10, 11, 16, 10, 5, 11, 5, 1, 10, 4, 14, 5, 19, 16, 17, 1, 16, 14, 17, 3, 16, 8, 14, 8, 4, 18, 7, 5, 17, 5, 1, 12, 12, 13, 4, 18, 17, 4, 16, 2, 14, 14, 3, 17, 2, 11, 9, 19, 12, 7, 14, 12, 12, 1, 7, 4, 6, 17, 13, 13, 12, 5, 8, 4, 10, 16, 18, 11, 18, 8, 2, 5, 14, 2, 2, 10, 10, 18, 16, 11, 7, 5, 4, 8, 14, 13, 10, 7, 18, 17, 9, 2, 19, 18, 6, 11, 6, 10, 11, 5, 18, 7, 13, 12, 9, 1, 12, 7, 11, 17, 8, 9, 15, 17, 15, 17, 3, 5, 7, 5, 6, 6, 9, 7, 16, 1, 7, 11, 4, 2, 19, 2, 13, 19, 11, 7, 8, 12, 13, 16, 13, 14, 3, 15, 17, 8, 16, 7, 9, 9, 3, 1, 15, 16, 15, 6, 5, 16, 4, 12, 12, 16, 17, 6, 15, 2, 4, 7, 7, 7, 3, 5, 18, 9, 18, 6, 10, 16, 14, 1, 3, 6, 18, 18, 19, 2, 19, 8, 16, 18, 12, 13, 4, 9, 2, 5, 3, 18, 6, 3, 3, 2, 19, 1, 16, 2, 4, 1, 12, 7, 13, 5, 7, 8, 9, 12, 9, 10, 16, 18, 17, 16, 10, 4, 4, 3, 12, 18, 8, 13, 2, 12, 4, 8, 14, 6, 8, 11, 11, 11, 19, 5, 5, 3, 15, 11, 19, 11, 12, 14, 19, 1, 16, 6, 19, 17, 9, 7, 3, 9, 4, 2, 18, 5, 14, 8, 17, 16, 19, 8, 8, 12, 15, 12, 18, 8, 8, 15, 1, 10, 1, 15, 1, 16, 9, 19, 1, 1, 12, 1, 11, 18, 10, 6, 13, 13, 10, 13, 5, 16, 5, 6, 7, 5, 11, 10, 4, 3, 7, 18, 10, 12, 17, 4, 5, 11, 17, 19, 15, 17, 16, 5, 11, 11, 17, 15, 8, 5, 3];
T = [10, 8, 6, 14, 10, 3, 5, 1, 11, 12, 23, 13, 29, 5, 19, 10, 10, 1, 3, 14, 1, 2, 10, 4, 18, 9, 14, 16, 9, 9, 3, 1, 19, 7, 1, 1, 8, 1, 21, 13, 1, 1, 10, 17, 18, 12, 13, 1, 7, 13, 14, 3, 6, 6, 5, 15, 13, 10, 8, 29, 13, 11, 8, 18, 10, 4, 5, 1, 8, 3, 8, 10, 2, 8, 12, 23, 16, 13, 4, 11, 6, 25, 20, 11, 1, 16, 11, 21, 1, 27, 12, 16, 9, 17, 20, 11, 5, 16, 1, 6, 8, 7, 19, 2, 9, 14, 18, 17, 11, 9, 13, 11, 8, 20, 1, 19, 14, 4, 11, 1, 6, 2, 13, 1, 15, 20, 17, 24, 10, 14, 3, 8, 1, 13, 21, 15, 1, 1, 3, 8, 18, 1, 1, 4, 3, 5, 8, 5, 1, 8, 1, 4, 1, 3, 10, 5, 6, 7, 4, 16, 15, 7, 20, 6, 15, 7, 3, 10, 1, 22, 8, 23, 24, 1, 3, 13, 12, 9, 3, 12, 12, 19, 19, 4, 13, 12, 15, 8, 1, 19, 14, 19, 5, 15, 11, 11, 9, 12, 20, 1, 10, 1, 16, 15, 13, 21, 12, 2, 1, 7, 7, 8, 10, 18, 8, 1, 2, 23, 21, 1, 11, 9, 11, 22, 1, 15, 3, 8, 21, 13, 7, 11, 12, 3, 12, 10, 16, 11, 21, 6, 15, 14, 5, 15, 10, 27, 25, 1, 15, 14, 3, 16, 4, 1, 3, 1, 12, 22, 16, 14, 2, 9, 4, 3, 7, 11, 15, 5, 1, 17, 11, 4, 2, 1, 10, 15, 21, 12, 1, 1, 1, 3, 8, 17, 11, 6, 11, 10, 1, 10, 16, 16, 10, 6, 20, 17, 9, 8, 6, 14, 3, 9, 6, 8, 10, 12, 1, 21, 10, 10, 9, 1, 13, 10, 4, 2, 11, 15, 12, 25, 1, 8, 8, 11, 15, 27, 13, 11, 14, 12, 1, 18, 16, 4, 1, 15, 15, 17, 4, 20, 4, 8, 8, 11, 9, 5, 10, 3, 18, 3, 6, 10, 6, 19, 6, 18, 21, 8, 8, 17, 11, 21, 12, 1, 14, 17, 9, 15, 10, 7, 9, 13, 18, 12, 10, 9, 3, 1, 15, 22, 9, 16, 13, 4, 15, 10, 10, 17, 13, 12, 12, 10, 7, 1, 5, 10, 1, 13, 6, 4, 19, 3, 17, 1, 4, 13, 27, 17, 20, 1, 25, 19, 20, 11, 17, 22, 16, 6, 8, 21, 1, 10, 8, 22, 10, 1, 20, 10, 1, 14, 1, 1, 1, 16, 3, 16, 18, 10, 16, 7, 4, 14, 8, 1, 14, 11, 5, 22, 13, 12, 4, 2, 1, 21, 21, 1, 13, 12, 13, 13, 4, 9, 8, 1, 6, 16, 19, 12, 1, 15, 4, 12, 9, 6, 9, 19, 10, 16, 16, 12, 17, 1, 13, 24, 8, 13, 16, 1, 9, 1, 23, 8, 12, 20, 1, 18, 18, 2, 6, 1, 28, 8, 12, 7, 15, 8, 16, 3, 1, 4, 1, 15, 1, 17, 9, 14, 1, 18, 8, 7, 17, 16, 27, 15, 4, 23, 6, 12, 6, 16, 4, 18, 11, 13, 11, 11, 10, 12, 16, 15, 9, 7, 11, 4, 11, 7, 2, 11, 9, 1, 17, 20, 25, 8, 11, 10, 5, 1, 5, 3, 12, 3, 3, 17, 8, 14, 15, 18, 6, 13, 8, 20, 20, 5, 15, 3, 13, 8, 2, 13, 10, 12, 5, 2, 10, 15, 23, 3, 2, 2, 5, 14, 17, 8, 1, 9, 17, 21, 27, 2, 20, 14, 22, 1, 10, 20, 8, 13, 22, 10, 5, 19, 17, 14, 1, 8, 1, 13, 1, 13, 12, 10, 1, 14, 8, 20, 18, 14, 2, 17, 9, 11, 6, 8, 7, 1, 1, 7, 4, 13, 2, 12, 22, 15, 1, 13, 18, 1, 1, 14, 14, 13, 2, 15, 2, 12, 13, 11, 16, 10, 5, 15, 16, 1, 28, 1, 18, 15, 17, 8, 8, 10, 19, 8, 13, 6, 16, 13, 9, 10, 22, 8, 3, 11, 24, 3, 1, 13, 4, 11, 20, 23, 1, 23, 20, 5, 3, 6, 22, 3, 9, 13, 17, 17, 12, 12, 1, 1, 5, 11, 14, 11, 16, 5, 16, 13, 14, 5, 7, 12, 8, 2, 15, 5, 1, 8, 8, 17, 14, 1, 8, 11, 8, 7, 16, 14, 2, 6, 7, 18, 1, 10, 19, 27, 14, 7, 20, 4, 1, 18, 9, 6, 9, 22, 24, 5, 11, 9, 1, 19, 7, 1, 11, 12, 18, 1, 10, 7, 12, 1, 10, 14, 11, 25, 10, 1, 11, 6, 2, 4, 16, 3, 17, 6, 4, 7, 3, 2, 10, 14, 2, 3, 17, 4, 1, 13, 6, 9, 1, 17, 11, 1, 19, 19, 14, 4, 3, 12, 21, 12, 15, 3, 14, 17, 1, 23, 10, 1, 3, 15, 2, 9, 8, 1, 11, 10, 7, 8, 15, 10, 9, 10, 5, 8, 10, 3, 1, 9, 23, 15, 6, 9, 12, 9, 1, 7, 9, 1, 11, 1, 1, 3, 14, 6, 1, 5, 9, 6, 1, 11, 8, 10, 2, 1, 3, 18, 6, 10, 4, 17, 5, 11, 9, 13, 1, 7, 12, 11, 7, 14, 1, 4, 8, 1, 20, 16, 17, 7, 4, 2, 16, 8, 6, 5, 13, 6, 1, 13, 8, 1, 6, 26, 14, 20, 18, 7, 1, 9, 13, 5, 3, 7, 21, 14, 19, 3, 1, 1, 24, 15, 3, 9, 9, 19, 2, 26, 7, 11, 16, 12, 2, 18, 1, 13, 1, 18, 12, 12, 6, 2, 7, 10, 5, 9, 15, 2, 14, 20, 15, 4, 2, 1, 3, 19, 9, 2, 12, 1, 5, 17, 13, 9, 20, 16, 14, 1, 2, 5, 16, 3, 8, 14, 17, 13, 7, 4, 23, 17, 23, 14, 1, 17, 19, 17, 14, 12, 4, 14, 1, 3, 4, 1, 17, 21, 8, 1, 1, 14, 14, 19, 13, 14, 16, 1, 15, 10, 1, 12, 22, 4, 9, 23, 20, 21, 1, 15, 5, 11, 15, 4, 9, 3, 11, 7, 9, 14, 10, 3, 13, 1, 17, 20, 2, 8, 5, 5, 17, 15, 13, 14, 16, 13, 6, 1, 8, 4, 16, 3, 1, 12, 18, 4, 3, 19, 8, 12, 10, 16, 8, 2, 14, 6, 1, 7, 10, 8, 17, 14, 7, 5, 15, 17, 6, 15, 9, 10, 11, 25, 3, 10, 20, 4, 7, 10, 4, 7, 7, 13, 6, 1, 18, 7, 5, 20, 20, 8, 6, 22, 15, 4, 27, 9, 8, 7, 1, 18, 12, 8, 3, 18, 6, 1, 1, 1, 8, 1, 8, 8, 1, 6, 7, 1, 12, 3, 14, 9, 1, 1, 16, 20, 4, 6, 11, 9, 1, 5, 2, 5, 1, 9, 1, 5, 13, 3, 9, 1, 12, 1, 1, 12, 1, 16, 3, 15, 10, 11, 5, 14, 1, 7, 8, 9, 13, 22, 15, 17, 8, 2, 6, 12, 9, 13, 1, 9, 8, 6, 22, 16, 8, 17, 16, 10, 6, 23, 16, 9, 1, 11, 1, 2, 1, 12, 1, 17, 20, 7, 17, 9, 7, 13, 18, 6, 14, 14, 6, 15, 1, 21, 19, 1, 21, 19, 1, 6, 10, 12, 12, 8, 1, 6, 1, 1, 17, 4, 15, 1, 27, 18, 19, 1, 13, 4, 18, 2, 20, 7, 19, 5, 1, 15, 2, 8, 15, 3, 1, 2, 9, 17, 1, 15, 15, 1, 18, 1, 3, 14, 6, 24, 1, 7, 3, 17, 21, 7, 17, 15, 13, 1, 6, 1, 4, 15, 19, 18, 14, 10, 5, 7, 1, 16, 9, 3, 14, 11, 1, 6, 12, 10, 15, 11, 11, 19, 15, 13, 10, 10, 5, 2, 6, 1, 15, 12, 11, 16, 13, 1, 20, 16, 10, 15, 1, 13, 15, 13, 19, 6, 18, 8, 14, 3, 2, 2, 22, 12, 7, 14, 18, 5, 10, 13, 1, 1, 7, 1, 10, 1, 9, 2, 21, 3, 1, 13, 8, 2, 16, 1, 10, 16, 9, 2, 3, 11, 15, 21, 16, 15, 2, 18, 21, 18, 18, 16, 13, 16, 1, 1, 19, 19, 17, 4, 1, 11, 1, 4, 10, 14, 17, 1, 5, 1, 7, 4, 10, 9, 1, 4, 22, 1, 17, 2, 11, 6, 7, 1, 4, 16, 15, 20, 19, 1, 15, 10, 17, 21, 13, 16, 8, 12, 1, 2, 6, 18, 9, 10, 5, 1, 20, 1, 13, 3, 5, 1, 13, 4, 5, 4, 5, 10, 15, 21, 4, 13, 21, 12, 21, 17, 11, 16, 2, 4, 12, 11, 15, 18, 10, 1, 1, 2, 15, 6, 10, 19, 15, 6, 22, 1, 1, 9, 12, 16, 29, 21, 13, 21, 12, 5, 8, 1, 22, 24, 7, 7, 2, 5, 1, 1, 14, 4, 10, 8, 15, 13, 20, 9, 1, 14, 13, 3, 18, 11, 6, 8, 1, 6, 5, 8, 4, 14, 8, 14, 1, 5, 5, 3, 1, 18, 10, 9, 21, 10, 6, 11, 2, 10, 1, 3, 5, 6, 8, 6, 1, 1, 7, 7, 9, 7, 13, 12, 11, 3, 18, 19, 11, 18, 18, 1, 15, 7, 14, 23, 1, 5, 3];
Lower_Bound = [0, 10, 16, 30, 32, 37, 48, 60, 234, 221, 192, 187, 168, 172, 171, 173, 172, 170, 166, 184, 196, 212, 221, 224, 243, 250, 251, 259, 288, 289, 294, 295, 305, 322, 334, 347, 354, 367, 370, 376, 381, 396, 406, 414, 423, 436, 444, 8, 18, 22, 23, 31, 48, 71, 81, 113, 111, 119, 142, 158, 162, 157, 151, 167, 156, 157, 166, 187, 214, 222, 231, 244, 255, 260, 261, 267, 274, 293, 292, 323, 323, 335, 346, 355, 358, 369, 386, 387, 401, 405, 406, 412, 425, 426, 446, 47, 23, 29, 26, 27, 40, 55, 97, 96, 99, 100, 131, 130, 128, 123, 131, 132, 140, 161, 165, 168, 227, 222, 216, 209, 264, 248, 263, 267, 273, 280, 283, 284, 306, 329, 348, 347, 350, 358, 367, 379, 412, 415, 408, 421, 440, 447, 455, 57, 56, 37, 53, 48, 59, 56, 68, 88, 98, 99, 114, 127, 116, 118, 125, 132, 142, 160, 161, 163, 184, 185, 194, 205, 240, 241, 244, 252, 273, 286, 293, 292, 295, 307, 323, 334, 340, 355, 369, 374, 384, 411, 412, 427, 430, 446, 447, 71, 70, 82, 68, 70, 68, 72, 69, 80, 95, 96, 113, 113, 115, 125, 133, 145, 146, 147, 150, 167, 178, 189, 199, 209, 225, 237, 247, 267, 284, 292, 298, 301, 305, 313, 344, 340, 341, 350, 360, 361, 374, 378, 423, 412, 427, 451, 450, 117, 109, 98, 113, 79, 92, 79, 93, 85, 103, 107, 111, 112, 127, 142, 146, 146, 154, 155, 164, 169, 172, 190, 196, 206, 225, 231, 252, 260, 277, 288, 290, 302, 309, 323, 309, 319, 328, 341, 353, 363, 361, 380, 378, 400, 398, 459, 414, 159, 153, 143, 126, 114, 102, 95, 94, 114, 119, 126, 132, 151, 144, 151, 150, 163, 165, 182, 174, 194, 175, 213, 202, 224, 240, 248, 260, 270, 278, 288, 289, 299, 300, 301, 302, 318, 321, 339, 349, 356, 360, 368, 369, 380, 385, 398, 410, 149, 147, 146, 125, 124, 113, 100, 104, 113, 121, 122, 138, 154, 155, 155, 167, 176, 185, 183, 199, 214, 231, 230, 238, 230, 246, 247, 248, 271, 263, 283, 301, 309, 303, 302, 310, 322, 337, 355, 371, 370, 386, 382, 397, 398, 407, 402, 420, 175, 168, 165, 138, 142, 126, 132, 144, 131, 127, 138, 150, 161, 159, 171, 173, 182, 189, 193, 204, 239, 241, 250, 251, 271, 255, 266, 256, 257, 262, 307, 303, 306, 323, 332, 317, 323, 336, 356, 372, 387, 387, 388, 414, 407, 408, 416, 428, 180, 178, 168, 145, 142, 140, 138, 152, 149, 150, 159, 180, 171, 191, 186, 252, 193, 194, 200, 220, 228, 289, 267, 272, 279, 272, 271, 261, 260, 261, 304, 292, 302, 316, 324, 342, 331, 361, 361, 372, 378, 385, 386, 393, 397, 399, 411, 426, 215, 192, 174, 173, 159, 145, 147, 160, 170, 167, 170, 180, 195, 211, 229, 230, 221, 204, 212, 222, 230, 287, 281, 289, 290, 280, 277, 274, 277, 274, 287, 291, 302, 322, 323, 344, 349, 352, 370, 373, 386, 386, 407, 406, 407, 408, 438, 427, 202, 191, 175, 174, 161, 156, 149, 157, 159, 164, 165, 204, 196, 210, 211, 219, 229, 236, 231, 233, 243, 250, 268, 278, 297, 295, 288, 282, 278, 296, 305, 314, 325, 341, 343, 352, 353, 360, 361, 372, 384, 385, 395, 407, 408, 422, 433, 443, 203, 192, 190, 186, 183, 168, 172, 172, 174, 172, 174, 207, 190, 194, 207, 213, 214, 231, 232, 239, 258, 251, 254, 266, 278, 293, 296, 283, 303, 302, 312, 313, 328, 330, 338, 339, 349, 356, 371, 381, 391, 392, 402, 405, 414, 437, 443, 444, 197, 188, 187, 178, 177, 176, 175, 189, 188, 186, 177, 178, 189, 199, 201, 204, 222, 228, 238, 242, 259, 264, 275, 288, 289, 301, 312, 325, 324, 316, 315, 331, 337, 341, 343, 351, 357, 370, 376, 389, 397, 403, 403, 423, 429, 456, 455, 468, 198, 195, 197, 183, 180, 179, 203, 190, 199, 192, 188, 186, 193, 200, 212, 214, 215, 228, 255, 273, 261, 267, 274, 284, 287, 302, 316, 329, 333, 335, 336, 338, 347, 349, 350, 355, 368, 371, 387, 390, 410, 411, 416, 430, 438, 452, 465, 472, 205, 213, 196, 182, 181, 200, 206, 218, 218, 217, 214, 215, 209, 217, 218, 230, 216, 229, 243, 244, 259, 260, 272, 276, 285, 305, 326, 330, 335, 339, 343, 352, 355, 362, 367, 377, 380, 381, 398, 400, 408, 413, 419, 470, 455, 469, 469, 475, 226, 218, 202, 199, 209, 214, 217, 232, 231, 221, 239, 234, 232, 218, 219, 226, 253, 245, 259, 254, 269, 282, 283, 292, 308, 306, 309, 319, 323, 330, 334, 341, 354, 360, 361, 379, 401, 401, 395, 403, 415, 430, 457, 473, 465, 472, 488, 476, 224, 221, 203, 204, 205, 213, 214, 222, 223, 230, 231, 241, 238, 238, 229, 230, 246, 250, 256, 265, 266, 268, 273, 282, 283, 296, 299, 334, 333, 334, 335, 336, 352, 355, 368, 376, 381, 382, 389, 398, 411, 449, 466, 456, 464, 470, 482, 486, 236, 227, 227, 205, 213, 221, 231, 228, 244, 253, 253, 242, 240, 239, 240, 250, 257, 261, 270, 270, 275, 269, 283, 287, 288, 305, 306, 327, 328, 346, 356, 367, 359, 360, 361, 362, 366, 381, 408, 420, 421, 434, 452, 454, 461, 479, 484, 485, 244, 245, 243, 232, 229, 256, 254, 246, 245, 255, 254, 255, 252, 258, 260, 261, 268, 285, 283, 306, 289, 311, 298, 299, 307, 308, 312, 327, 334, 335, 345, 352, 353, 362, 365, 368, 367, 405, 417, 432, 425, 444, 459, 469, 479, 481, 487, 499, 258, 247, 234, 233, 249, 259, 260, 261, 274, 273, 277, 269, 272, 274, 276, 264, 278, 292, 302, 315, 316, 316, 315, 305, 314, 316, 319, 320, 328, 330, 331, 341, 350, 352, 363, 374, 380, 395, 413, 434, 452, 457, 467, 468, 487, 482, 486, 487, 259, 258, 254, 268, 264, 269, 275, 282, 280, 289, 290, 275, 274, 276, 283, 284, 283, 299, 303, 322, 323, 333, 316, 329, 335, 333, 332, 338, 344, 352, 347, 354, 353, 356, 361, 374, 378, 382, 431, 431, 441, 451, 466, 462, 475, 487, 497, 514, 284, 268, 272, 269, 285, 270, 280, 281, 295, 293, 299, 292, 288, 282, 283, 284, 296, 312, 324, 337, 330, 342, 338, 337, 342, 335, 337, 342, 343, 353, 363, 367, 370, 357, 377, 379, 393, 387, 405, 416, 422, 430, 436, 441, 482, 486, 494, 508, 286, 287, 283, 288, 291, 292, 281, 291, 300, 321, 318, 321, 310, 312, 292, 302, 303, 306, 311, 317, 325, 331, 332, 333, 340, 345, 338, 347, 347, 360, 372, 383, 386, 397, 378, 389, 396, 414, 415, 430, 423, 458, 444, 467, 468, 473, 476];
Upper_Bound = [1, 11, 17, 31, 33, 38, 49, 61, 235, 222, 193, 188, 169, 173, 172, 174, 173, 171, 167, 185, 197, 213, 222, 225, 244, 251, 252, 260, 289, 290, 295, 296, 306, 323, 335, 348, 355, 368, 371, 377, 382, 397, 407, 415, 424, 437, 445, 9, 19, 23, 24, 32, 49, 72, 82, 114, 112, 120, 143, 159, 163, 158, 152, 168, 157, 158, 167, 188, 215, 223, 232, 245, 256, 261, 262, 268, 275, 294, 293, 324, 324, 336, 347, 356, 359, 370, 387, 388, 402, 406, 407, 413, 426, 427, 447, 48, 24, 30, 27, 28, 41, 56, 98, 97, 100, 101, 132, 131, 129, 124, 132, 133, 141, 162, 166, 169, 228, 223, 217, 210, 265, 249, 264, 268, 274, 281, 284, 285, 307, 330, 349, 348, 351, 359, 368, 380, 413, 416, 409, 422, 441, 448, 456, 58, 57, 38, 54, 49, 60, 57, 69, 89, 99, 100, 115, 128, 117, 119, 126, 133, 143, 161, 162, 164, 185, 186, 195, 206, 241, 242, 245, 253, 274, 287, 294, 293, 296, 308, 324, 335, 341, 356, 370, 375, 385, 412, 413, 428, 431, 447, 448, 72, 71, 83, 69, 71, 69, 73, 70, 81, 96, 97, 114, 114, 116, 126, 134, 146, 147, 148, 151, 168, 179, 190, 200, 210, 226, 238, 248, 268, 285, 293, 299, 302, 306, 314, 345, 341, 342, 351, 361, 362, 375, 379, 424, 413, 428, 452, 451, 118, 110, 99, 114, 80, 93, 80, 94, 86, 104, 108, 112, 113, 128, 143, 147, 147, 155, 156, 165, 170, 173, 191, 197, 207, 226, 232, 253, 261, 278, 289, 291, 303, 310, 324, 310, 320, 329, 342, 354, 364, 362, 381, 379, 401, 399, 460, 415, 160, 154, 144, 127, 115, 103, 96, 95, 115, 120, 127, 133, 152, 145, 152, 151, 164, 166, 183, 175, 195, 176, 214, 203, 225, 241, 249, 261, 271, 279, 289, 290, 300, 301, 302, 303, 319, 322, 340, 350, 357, 361, 369, 370, 381, 386, 399, 411, 150, 148, 147, 126, 125, 114, 101, 105, 114, 122, 123, 139, 155, 156, 156, 168, 177, 186, 184, 200, 215, 232, 231, 239, 231, 247, 248, 249, 272, 264, 284, 302, 310, 304, 303, 311, 323, 338, 356, 372, 371, 387, 383, 398, 399, 408, 403, 421, 176, 169, 166, 139, 143, 127, 133, 145, 132, 128, 139, 151, 162, 160, 172, 174, 183, 190, 194, 205, 240, 242, 251, 252, 272, 256, 267, 257, 258, 263, 308, 304, 307, 324, 333, 318, 324, 337, 357, 373, 388, 388, 389, 415, 408, 409, 417, 429, 181, 179, 169, 146, 143, 141, 139, 153, 150, 151, 160, 181, 172, 192, 187, 253, 194, 195, 201, 221, 229, 290, 268, 273, 280, 273, 272, 262, 261, 262, 305, 293, 303, 317, 325, 343, 332, 362, 362, 373, 379, 386, 387, 394, 398, 400, 412, 427, 216, 193, 175, 174, 160, 146, 148, 161, 171, 168, 171, 181, 196, 212, 230, 231, 222, 205, 213, 223, 231, 288, 282, 290, 291, 281, 278, 275, 278, 275, 288, 292, 303, 323, 324, 345, 350, 353, 371, 374, 387, 387, 408, 407, 408, 409, 439, 428, 203, 192, 176, 175, 162, 157, 150, 158, 160, 165, 166, 205, 197, 211, 212, 220, 230, 237, 232, 234, 244, 251, 269, 279, 298, 296, 289, 283, 279, 297, 306, 315, 326, 342, 344, 353, 354, 361, 362, 373, 385, 386, 396, 408, 409, 423, 434, 444, 204, 193, 191, 187, 184, 169, 173, 173, 175, 173, 175, 208, 191, 195, 208, 214, 215, 232, 233, 240, 259, 252, 255, 267, 279, 294, 297, 284, 304, 303, 313, 314, 329, 331, 339, 340, 350, 357, 372, 382, 392, 393, 403, 406, 415, 438, 444, 445, 198, 189, 188, 179, 178, 177, 176, 190, 189, 187, 178, 179, 190, 200, 202, 205, 223, 229, 239, 243, 260, 265, 276, 289, 290, 302, 313, 326, 325, 317, 316, 332, 338, 342, 344, 352, 358, 371, 377, 390, 398, 404, 404, 424, 430, 457, 456, 469, 199, 196, 198, 184, 181, 180, 204, 191, 200, 193, 189, 187, 194, 201, 213, 215, 216, 229, 256, 274, 262, 268, 275, 285, 288, 303, 317, 330, 334, 336, 337, 339, 348, 350, 351, 356, 369, 372, 388, 391, 411, 412, 417, 431, 439, 453, 466, 473, 206, 214, 197, 183, 182, 201, 207, 219, 219, 218, 215, 216, 210, 218, 219, 231, 217, 230, 244, 245, 260, 261, 273, 277, 286, 306, 327, 331, 336, 340, 344, 353, 356, 363, 368, 378, 381, 382, 399, 401, 409, 414, 420, 471, 456, 470, 470, 476, 227, 219, 203, 200, 210, 215, 218, 233, 232, 222, 240, 235, 233, 219, 220, 227, 254, 246, 260, 255, 270, 283, 284, 293, 309, 307, 310, 320, 324, 331, 335, 342, 355, 361, 362, 380, 402, 402, 396, 404, 416, 431, 458, 474, 466, 473, 489, 477, 225, 222, 204, 205, 206, 214, 215, 223, 224, 231, 232, 242, 239, 239, 230, 231, 247, 251, 257, 266, 267, 269, 274, 283, 284, 297, 300, 335, 334, 335, 336, 337, 353, 356, 369, 377, 382, 383, 390, 399, 412, 450, 467, 457, 465, 471, 483, 487, 237, 228, 228, 206, 214, 222, 232, 229, 245, 254, 254, 243, 241, 240, 241, 251, 258, 262, 271, 271, 276, 270, 284, 288, 289, 306, 307, 328, 329, 347, 357, 368, 360, 361, 362, 363, 367, 382, 409, 421, 422, 435, 453, 455, 462, 480, 485, 486, 245, 246, 244, 233, 230, 257, 255, 247, 246, 256, 255, 256, 253, 259, 261, 262, 269, 286, 284, 307, 290, 312, 299, 300, 308, 309, 313, 328, 335, 336, 346, 353, 354, 363, 366, 369, 368, 406, 418, 433, 426, 445, 460, 470, 480, 482, 488, 500, 259, 248, 235, 234, 250, 260, 261, 262, 275, 274, 278, 270, 273, 275, 277, 265, 279, 293, 303, 316, 317, 317, 316, 306, 315, 317, 320, 321, 329, 331, 332, 342, 351, 353, 364, 375, 381, 396, 414, 435, 453, 458, 468, 469, 488, 483, 487, 488, 260, 259, 255, 269, 265, 270, 276, 283, 281, 290, 291, 276, 275, 277, 284, 285, 284, 300, 304, 323, 324, 334, 317, 330, 336, 334, 333, 339, 345, 353, 348, 355, 354, 357, 362, 375, 379, 383, 432, 432, 442, 452, 467, 463, 476, 488, 498, 515, 285, 269, 273, 270, 286, 271, 281, 282, 296, 294, 300, 293, 289, 283, 284, 285, 297, 313, 325, 338, 331, 343, 339, 338, 343, 336, 338, 343, 344, 354, 364, 368, 371, 358, 378, 380, 394, 388, 406, 417, 423, 431, 437, 442, 483, 487, 495, 509, 287, 288, 284, 289, 292, 293, 282, 292, 301, 322, 319, 322, 311, 313, 293, 303, 304, 307, 312, 318, 326, 332, 333, 334, 341, 346, 339, 348, 348, 361, 373, 384, 387, 398, 379, 390, 397, 415, 416, 431, 424, 459, 445, 468, 469, 474, 477];
Start = 1;
End = 1150;
Time = 478;
